(set-logic BV)

(synth-fun deobfucated ( (d (BitVec 64))  (b (BitVec 64))  ) (BitVec 64)
	(
		(Start (BitVec 64)
			(
				(bvnot Start)
				(bvxor Start Start)
				(bvand Start Start)
				(bvor Start Start)
				(bvneg Start)
				(bvadd Start Start)
				(bvmul Start Start)
				(bvsub Start Start)
				d b
			)
		)
	)
)

(constraint (= (deobfucated #x0000000039a66d32 #x0000000028bdbfc1) #xffffffffeefdbfcd))
(constraint (= (deobfucated #x000000001a330b47 #x000000001aae63dc) #xffffffffffeef7fb))
(constraint (= (deobfucated #x00000000394bb7cc #x000000003951acc3) #xfffffffffff5ecf3))
(constraint (= (deobfucated #x00000000370f35e9 #x000000003341adf3) #xfffffffffbf1eff6))
(constraint (= (deobfucated #x000000000759ea71 #x0000000017d69638) #xfffffffffff697bf))
(constraint (= (deobfucated #x000000000f66391b #x000000001f8e42b4) #xffffffffff9fc6f7))
(constraint (= (deobfucated #x00000000328c6b35 #x0000000034d4fa7e) #xfffffffffdf7feff))
(constraint (= (deobfucated #x0000000023c804ae #x00000000282e63dd) #xfffffffffc3ffbdd))
(constraint (= (deobfucated #x000000002caaa0c3 #x000000000f391b5f) #xffffffffdf7d5f7e))
(constraint (= (deobfucated #x000000002fe1e337 #x0000000029d1648f) #xfffffffff9df7cce))
(constraint (= (deobfucated #x00000000280e3f37 #x000000000ba648b8) #xffffffffdff7c8ff))
(constraint (= (deobfucated #x000000000b2427ae #x00000000186f2585) #xfffffffffcfffdd5))
(constraint (= (deobfucated #x000000000261d0df #x000000000daa9719) #xfffffffffdbebf38))
(constraint (= (deobfucated #x0000000036d5dcd3 #x0000000020facc35) #xffffffffe9faef3c))
(constraint (= (deobfucated #x000000001ad45422 #x0000000000a759f2) #xffffffffe5affbfd))
(constraint (= (deobfucated #x000000001004a495 #x0000000031c21ff4) #xfffffffffffb5ffb))
(constraint (= (deobfucated #x0000000028736451 #x000000000617954f) #xffffffffd79f9fee))
(constraint (= (deobfucated #x0000000031442f01 #x0000000002435356) #xffffffffcefbd3ff))
(constraint (= (deobfucated #x0000000004bd5a81 #x000000000be387cd) #xfffffffffbe3a7fe))
(constraint (= (deobfucated #x0000000017fc419e #x000000001fc1729a) #xffffffffffc3fef9))
(check-synth)